17	4
13	14	13	12	
0	0	0	0	0	3	2	3	4	
3	0	10	0	0	3	6	7	17	
8	0	7	0	0	3	5	6	17	
7	2	0	0	0	3	5	13	17	
5	0	0	0	8	1	17	
225	10	0	0	0	3	8	11	17	
225	0	6	0	0	1	10	
150	0	3	0	0	3	9	12	17	
25	0	0	1	0	2	14	17	
75	0	0	10	0	3	16	17	17	
200	0	7	0	0	2	17	17	
175	0	0	6	0	1	17	
4	0	0	1	0	3	15	16	17	
9	0	0	0	3	1	17	
8	0	0	0	7	3	17	17	17	
6	6	0	0	0	2	17	17	
0	0	0	0	0	0	
